50
1000
478
469
466
465
444
439
436
434
433
429
428
418
398
395
387
387
386
385
376
374
360
355
349
345
341
340
330
324
320
299
279
278
264
260
257
249
247
241
237
219
215
205
199
196
193
191
187
185
182
175
